;; produced by cvc4_16.drv ;;
(set-logic AUFBVFPDTNIRA)
(set-info :smt-lib-version 2.6)
;;; generated by SMT-LIB2 driver
;;; SMT-LIB2 driver: bit-vectors, common part
;;; SMT-LIB2: integer arithmetic
(declare-sort string 0)

(declare-datatypes ((tuple0 0))
(((Tuple0))))
(declare-sort us_private 0)

(declare-fun private__bool_eq (us_private us_private) Bool)

(declare-const us_null_ext__ us_private)

(declare-sort us_type_of_heap 0)

(declare-datatypes ((us_type_of_heap__ref 0))
(((us_type_of_heap__refqtmk (us_type_of_heap__content us_type_of_heap)))))
(declare-sort us_image 0)

(declare-datatypes ((int__ref 0))
(((int__refqtmk (int__content Int)))))
(declare-datatypes ((bool__ref 0))
(((bool__refqtmk (bool__content Bool)))))
(declare-datatypes ((us_fixed__ref 0))
(((us_fixed__refqtmk (us_fixed__content Int)))))
(declare-datatypes ((real__ref 0))
(((real__refqtmk (real__content Real)))))
(declare-datatypes ((us_private__ref 0))
(((us_private__refqtmk (us_private__content us_private)))))
(define-fun int__ref___projection ((a int__ref)) Int (int__content a))

(define-fun us_fixed__ref___projection ((a us_fixed__ref)) Int (us_fixed__content
                                                               a))

(define-fun bool__ref___projection ((a bool__ref)) Bool (bool__content a))

(define-fun real__ref___projection ((a real__ref)) Real (real__content a))

(define-fun us_private__ref___projection ((a us_private__ref)) us_private 
  (us_private__content a))

(declare-sort positive 0)

(declare-fun positiveqtint (positive) Int)

;; positive'axiom
  (assert
  (forall ((i positive))
  (and (<= 1 (positiveqtint i)) (<= (positiveqtint i) 2147483647))))

(define-fun in_range ((x Int)) Bool (and (<= 1 x) (<= x 2147483647)))

(declare-fun attr__ATTRIBUTE_IMAGE (Int) us_image)

(declare-fun attr__ATTRIBUTE_VALUE__pre_check (us_image) Bool)

(declare-fun attr__ATTRIBUTE_VALUE (us_image) Int)

(declare-fun user_eq (positive positive) Bool)

(declare-const dummy positive)

(declare-datatypes ((positive__ref 0))
(((positive__refqtmk (positive__content positive)))))
(define-fun positive__ref_positive__content__projection ((a positive__ref)) positive 
  (positive__content a))

(define-fun dynamic_invariant ((temp___expr_46 Int) (temp___is_init_42 Bool)
  (temp___skip_constant_43 Bool) (temp___do_toplevel_44 Bool)
  (temp___do_typ_inv_45 Bool)) Bool (=>
                                    (or (= temp___is_init_42 true)
                                    (<= 1 2147483647)) (in_range
                                    temp___expr_46)))

(declare-const x Int)

(declare-const attr__ATTRIBUTE_ADDRESS Int)

(declare-const attr__ATTRIBUTE_ADDRESS1 Int)

(declare-sort ttB 0)

(declare-fun ttBqtint (ttB) Int)

;; ttB'axiom
  (assert
  (forall ((i ttB))
  (and (<= (- 2147483648) (ttBqtint i)) (<= (ttBqtint i) 2147483647))))

(define-fun in_range1 ((x1 Int)) Bool (and (<= (- 2147483648) x1)
                                      (<= x1 2147483647)))

(declare-fun attr__ATTRIBUTE_IMAGE1 (Int) us_image)

(declare-fun attr__ATTRIBUTE_VALUE__pre_check1 (us_image) Bool)

(declare-fun attr__ATTRIBUTE_VALUE1 (us_image) Int)

(declare-fun user_eq1 (ttB ttB) Bool)

(declare-const dummy1 ttB)

(declare-datatypes ((ttB__ref 0))
(((ttB__refqtmk (ttB__content ttB)))))
(define-fun ttB__ref_ttB__content__projection ((a ttB__ref)) ttB (ttB__content
                                                                 a))

(declare-sort t 0)

(declare-fun tqtint (t) Int)

;; t'axiom
  (assert
  (forall ((i t))
  (and (<= (- 2147483648) (tqtint i)) (<= (tqtint i) 2147483647))))

(define-fun in_range2 ((x1 Int)) Bool (and (<= (- 2147483648) x1)
                                      (<= x1 2147483647)))

(declare-fun attr__ATTRIBUTE_IMAGE2 (Int) us_image)

(declare-fun attr__ATTRIBUTE_VALUE__pre_check2 (us_image) Bool)

(declare-fun attr__ATTRIBUTE_VALUE2 (us_image) Int)

(declare-fun user_eq2 (t t) Bool)

(declare-const dummy2 t)

(declare-datatypes ((t__ref 0))
(((t__refqtmk (t__content t)))))
(define-fun t__ref_t__content__projection ((a t__ref)) t (t__content a))

(define-fun dynamic_invariant1 ((temp___expr_158 Int)
  (temp___is_init_154 Bool) (temp___skip_constant_155 Bool)
  (temp___do_toplevel_156 Bool)
  (temp___do_typ_inv_157 Bool)) Bool (=>
                                     (or (= temp___is_init_154 true)
                                     (<= (- 2147483648) 2147483647))
                                     (in_range2 temp___expr_158)))

(assert
;; defqtvc
 ;; File "r_14.ads", line 9, characters 0-0
  (not
  (forall ((r_s Int) (spark__branch Bool))
  (=> (dynamic_invariant1 r_s true false true true)
  (=> (dynamic_invariant x true false true true)
  (=> (= spark__branch (ite (<= r_s (- 2147483647 x)) true false))
  (=> (= spark__branch true) (in_range1 (+ r_s x)))))))))
(check-sat)
